# Solution for model GasLib-40
# Objective value = 3.8311188725559028e+01
loadshed[innode_1] 0
loadshed[innode_2] 0
loadshed[innode_3] 0
loadshed[innode_4] 0
loadshed[innode_5] 0
loadshed[innode_6] 0
loadshed[innode_7] 0
loadshed[innode_8] 0
loadshed[source_1] -1.3454360972243951e-01
loadshed[source_2] 2.8529045159480293e-02
loadshed[source_3] 3.4835197622470448e-01
loadshed[sink_1] 0
loadshed[sink_2] 0
loadshed[sink_3] 0
loadshed[sink_4] 0
loadshed[sink_5] 0
loadshed[sink_6] 0
loadshed[sink_7] 0
loadshed[sink_8] 0
loadshed[sink_9] 0
loadshed[sink_10] 0
loadshed[sink_11] 0
loadshed[sink_12] 1
loadshed[sink_13] 0
loadshed[sink_14] 0
loadshed[sink_15] 0
loadshed[sink_16] 0
loadshed[sink_17] 0
loadshed[sink_18] 0
loadshed[sink_19] 0
loadshed[sink_20] 0
loadshed[sink_21] 1
loadshed[sink_22] 0
loadshed[sink_23] 0
loadshed[sink_24] 3.4259497939723971e-01
loadshed[sink_25] 0
loadshed[sink_26] 0
loadshed[sink_27] 0
loadshed[sink_28] 0
loadshed[sink_29] 0
flow[source_1,sink_3] 1.7936031441202317e+02
flow[innode_1,sink_16] 1.6354166666666970e+01
flow[innode_6,sink_13] 1.1459949574690366e+01
flow[sink_13,sink_14] -4.8942170919763015e+00
flow[sink_14,sink_10] -2.1248383758643058e+01
flow[sink_25,sink_26] 1.3402306333091531e+02
flow[sink_26,sink_9] 3.2708333333334551e+01
flow[sink_9,sink_18] 1.6354166666667879e+01
flow[sink_26,sink_4] 8.4960563330914113e+01
flow[sink_4,sink_20] 0
flow[sink_18,sink_6] 0
flow[sink_25,innode_8] -1.4665198107868682e+02
flow[sink_6,sink_7] -4.9062500000000313e+01
flow[sink_6,sink_22] 3.2708333333333641e+01
flow[sink_7,sink_24] 1.0751311274440974e+01
flow[sink_22,sink_1] 1.6354166666666970e+01
flow[sink_24,sink_21] 0
flow[sink_21,sink_12] 0
flow[sink_7,sink_5] -7.6167977941107949e+01
flow[sink_5,sink_17] -9.2522144607774621e+01
flow[sink_17,sink_4] -6.8606396664247441e+01
flow[sink_17,sink_8] -4.0269914610193794e+01
flow[sink_3,sink_23] 16.3541666666697
flow[sink_8,sink_20] -5.6624081276860466e+01
flow[sink_25,sink_20] 7.2978247943527379e+01
flow[sink_25,sink_15] -88.1634464371129
flow[sink_15,sink_29] -5.8781839600505783e+01
flow[sink_29,sink_28] 1.6354166666667879e+01
flow[sink_29,sink_2] 6.2089940169940455e+01
flow[sink_2,sink_15] 4.5735773503273791e+01
flow[sink_29,innode_7] -1.5358011310378077e+02
flow[innode_4,sink_19] 3.9263127299038139e+01
flow[sink_19,innode_3] 0
flow[innode_4,innode_5] 6.3756089792938269e+01
flow[sink_27,innode_5] -6.3756089792938269e+01
flow[sink_27,sink_19] 4.7401923126271605e+01
flow[sink_10,sink_11] 3.2708333333333641e+01
flow[sink_10,innode_2] -7.0310883758643456e+01
flow[sink_10,innode_3] 0
flow[innode_6,sink_25] -1.1459949574690366e+01
flow[sink_11,innode_1] 1.6354166666666970e+01
flow[sink_19,innode_2] 7.0310883758643456e+01
flow[source_3,innode_4] 1.0301921709197640e+02
flow[source_2,innode_7] 1.5358011310378077e+02
flow[sink_3,innode_8] 1.4665198107868682e+02
pressure[innode_1] 7.5554678762388889e+01
pressure[innode_2] 7.9422600670097410e+01
pressure[innode_3] 7.9422600670097410e+01
pressure[innode_4] 81.01325
pressure[innode_5] 80.9693951995714
pressure[innode_6] 7.4755779522530247e+01
pressure[innode_7] 81.01325
pressure[innode_8] 8.0413716987044225e+01
pressure[source_1] 81.01325
pressure[source_2] 81.01325
pressure[source_3] 81.01325
pressure[sink_1] 1.0548111528623910e+01
pressure[sink_2] 7.5332775366623522e+01
pressure[sink_3] 8.0413716987044225e+01
pressure[sink_4] 5.4514507969867708e+01
pressure[sink_5] 4.5000366707950896e+01
pressure[sink_6] 1.2649189139011282e+01
pressure[sink_7] 1.3322700316711414e+01
pressure[sink_8] 5.3412086208868480e+01
pressure[sink_9] 6.3358935711629584e+01
pressure[sink_10] 7.5706380069992434e+01
pressure[sink_11] 7.5554678762388889e+01
pressure[sink_12] 1.01325
pressure[sink_13] 7.4692602735660458e+01
pressure[sink_14] 7.4701361354041666e+01
pressure[sink_15] 7.5183458146137454e+01
pressure[sink_16] 7.4533028927571209e+01
pressure[sink_17] 5.1892597711960327e+01
pressure[sink_18] 6.2767193217829885e+01
pressure[sink_19] 7.9422600670097410e+01
pressure[sink_20] 5.7357988354063181e+01
pressure[sink_21] 1.01325
pressure[sink_22] 1.1611880670978920e+01
pressure[sink_23] 8.0248998975384438e+01
pressure[sink_24] 1.01325
pressure[sink_25] 7.4755779522530247e+01
pressure[sink_26] 65.3166138795142
pressure[sink_27] 8.0440337462876684e+01
pressure[sink_28] 7.6610301350258538e+01
pressure[sink_29] 7.6905583623875714e+01
interdiction[source_1,sink_3] 0
interdiction[innode_1,sink_16] 0
interdiction[innode_6,sink_13] 0
interdiction[sink_13,sink_14] 0
interdiction[sink_14,sink_10] 0
interdiction[sink_25,sink_26] 0
interdiction[sink_26,sink_9] 0
interdiction[sink_9,sink_18] 0
interdiction[sink_26,sink_4] 0
interdiction[sink_4,sink_20] 1
interdiction[sink_18,sink_6] 1
interdiction[sink_25,innode_8] 0
interdiction[sink_6,sink_7] 0
interdiction[sink_6,sink_22] 0
interdiction[sink_7,sink_24] 0
interdiction[sink_22,sink_1] 0
interdiction[sink_24,sink_21] 0
interdiction[sink_21,sink_12] 0
interdiction[sink_7,sink_5] 0
interdiction[sink_5,sink_17] 0
interdiction[sink_17,sink_4] 0
interdiction[sink_17,sink_8] 0
interdiction[sink_3,sink_23] 0
interdiction[sink_8,sink_20] 0
interdiction[sink_25,sink_20] 0
interdiction[sink_25,sink_15] 0
interdiction[sink_15,sink_29] 0
interdiction[sink_29,sink_28] 0
interdiction[sink_29,sink_2] 0
interdiction[sink_2,sink_15] 0
interdiction[sink_29,innode_7] 0
interdiction[innode_4,sink_19] 0
interdiction[sink_19,innode_3] 0
interdiction[innode_4,innode_5] 0
interdiction[sink_27,innode_5] 0
interdiction[sink_27,sink_19] 0
interdiction[sink_10,sink_11] 0
interdiction[sink_10,innode_2] 0
interdiction[sink_10,innode_3] 1
interdiction[innode_6,sink_25] 0
interdiction[sink_11,innode_1] 0
interdiction[sink_19,innode_2] 0
interdiction[source_3,innode_4] 0
interdiction[source_2,innode_7] 0
interdiction[sink_3,innode_8] 0
WCcheckFlow[source_1,sink_3] 39
WCcheckFlow[innode_1,sink_16] 1
WCcheckFlow[innode_6,sink_13] 13
WCcheckFlow[sink_13,sink_14] 12
WCcheckFlow[sink_14,sink_10] 11
WCcheckFlow[sink_25,sink_26] 15
WCcheckFlow[sink_26,sink_9] 2
WCcheckFlow[sink_9,sink_18] 1
WCcheckFlow[sink_26,sink_4] 12
WCcheckFlow[sink_4,sink_20] 0
WCcheckFlow[sink_18,sink_6] 0
WCcheckFlow[sink_25,innode_8] -36
WCcheckFlow[sink_6,sink_7] -3
WCcheckFlow[sink_6,sink_22] 2
WCcheckFlow[sink_7,sink_24] 3
WCcheckFlow[sink_22,sink_1] 1
WCcheckFlow[sink_24,sink_21] 2
WCcheckFlow[sink_21,sink_12] 1
WCcheckFlow[sink_7,sink_5] -7
WCcheckFlow[sink_5,sink_17] -8
WCcheckFlow[sink_17,sink_4] -11
WCcheckFlow[sink_17,sink_8] 2
WCcheckFlow[sink_3,sink_23] 1
WCcheckFlow[sink_8,sink_20] 1
WCcheckFlow[sink_25,sink_20] 0
WCcheckFlow[sink_25,sink_15] 6
WCcheckFlow[sink_15,sink_29] 5
WCcheckFlow[sink_29,sink_28] 1
WCcheckFlow[sink_29,sink_2] 1
WCcheckFlow[sink_2,sink_15] 0
WCcheckFlow[sink_29,innode_7] 2
WCcheckFlow[innode_4,sink_19] -4
WCcheckFlow[sink_19,innode_3] 1
WCcheckFlow[innode_4,innode_5] 2
WCcheckFlow[sink_27,innode_5] -1
WCcheckFlow[sink_27,sink_19] 0
WCcheckFlow[sink_10,sink_11] 3
WCcheckFlow[sink_10,innode_2] 7
WCcheckFlow[sink_10,innode_3] 0
WCcheckFlow[innode_6,sink_25] -14
WCcheckFlow[sink_11,innode_1] 2
WCcheckFlow[sink_19,innode_2] -6
WCcheckFlow[source_3,innode_4] -1
WCcheckFlow[source_2,innode_7] -1
WCcheckFlow[sink_3,innode_8] 37
